n_res = 4;
rc = [ 23, 15, 22, 11 ];
n_tasks = 30;
d = [ 4, 1, 8, 1, 10, 8, 4, 1, 10, 7, 9, 1, 4, 7, 10, 1, 6, 1, 8, 3, 10, 3, 7, 1, 9, 7, 4, 7, 6, 4 ];
rr = [| 1, 1, 7, 3, 1, 0, 9, 0, 0, 8, 1, 0, 9, 0, 0, 9, 4, 5, 5, 0, 3, 0, 0, 6, 1, 8, 10, 0, 0, 10
      | 3, 0, 4, 0, 0, 1, 5, 9, 4, 0, 2, 0, 3, 9, 6, 0, 4, 0, 0, 0, 0, 0, 7, 0, 0, 0, 0, 4, 8, 0
      | 0, 0, 0, 0, 8, 10, 8, 10, 6, 2, 0, 4, 0, 6, 0, 5, 10, 4, 0, 4, 2, 2, 6, 0, 9, 3, 1, 0, 0, 1
      | 1, 0, 0, 0, 0, 0, 0, 0, 7, 0, 4, 0, 0, 1, 0, 0, 0, 10, 2, 3, 0, 0, 0, 0, 0, 8, 5, 0, 0, 0 |];
suc = [ { 2 }, 
        { 3 }, 
        { 4 }, 
        { 5 }, 
        { 6 }, 
        { 7 }, 
        { 8 }, 
        { 9 }, 
        { 10 }, 
        { 11 }, 
        { 12 }, 
        { 13 }, 
        { 14 }, 
        { 15 }, 
        { 16 }, 
        { 17 }, 
        { 18 }, 
        { 19 }, 
        { 20 }, 
        { 21 }, 
        { 22 }, 
        { 23 }, 
        { 24 }, 
        { 25 }, 
        { 26 }, 
        { 27 }, 
        { 28 }, 
        { 29 }, 
        { 30 }, 
        {  }]; 
